c
c start with comments
c
p cnf 28 23
-24 -10 -26 9 -1 -7 0
18 -22 -12 0
-6 -7 -10 19 4 0
2 -15 0
-26 -4 -3 -9 22 0
-26 -11 24 0
5 27 25 -21 -6 0
-8 -23 -21 0
-21 -3 -22 24 0
24 -10 -22 13 0
9 -28 23 16 0
13 -1 -16 0
12 14 0
20 6 19 11 -14 0
7 -17 0
-11 25 15 0
13 -2 26 0
5 -9 4 0
-2 -3 -18 -18 -14 -3 0
16 27 11 -8 27 0
15 -4 -12 0
15 -10 17 0
21 -16 15 -8 5 0